n_res = 4;
rcap = [15, 17, 125, 127];
rtype = [1, 1, 2, 2];
n_tasks = 20;
modes = [ {1, 2, 3}, {4, 5, 6}, {7, 8, 9}, {10, 11, 12}, {13, 14, 15}, {16, 17, 18}, {19, 20, 21}, {22, 23, 24}, {25, 26, 27}, {28, 29, 30}, {31, 32, 33}, {34, 35, 36}, {37, 38, 39}, {40, 41, 42}, {43, 44, 45}, {46, 47, 48}, {49, 50, 51}, {52, 53, 54}, {55, 56, 57}, {58, 59, 60} ];
succ = [ {4, 7, 12}, {8, 9, 13}, {11}, {5, 6, 10}, {8, 11, 16}, {20}, {14}, {14}, {10, 12}, {17, 18}, {17, 18, 19}, {14, 16, 20}, {15, 16, 17}, {15}, {19}, {18, 19}, {20}, {}, {}, {} ];
n_opt = 60;
dur = [6, 7, 9, 4, 6, 9, 3, 3, 9, 1, 7, 10, 3, 3, 7, 1, 3, 10, 2, 7, 9, 6, 6, 10, 1, 4, 7, 2, 5, 5, 3, 5, 6, 3, 3, 7, 2, 3, 4, 1, 7, 8, 6, 8, 10, 3, 6, 9, 2, 4, 10, 2, 9, 10, 4, 6, 7, 4, 6, 7];
rreq = [|  9,  6,  4,  8,  0,  8,  0,  8,  8,  0,  0,  0,  0,  2,  1,  5,  5,  5,  8,  5,  5,  0,  8,  0,  0,  4,  0,  4,  0,  3,  0,  6,  4,  7,  0,  0,  0,  4,  0,  0,  0,  0,  6,  0,  0,  8,  0,  0,  5,  0,  0,  0,  0,  9,  8,  0,  8,  0,  0,  0
        |  0,  0,  0,  0,  8,  0,  4,  0,  0,  5,  5,  4,  8,  0,  0,  0,  0,  0,  0,  0,  0,  3,  0,  3,  4,  0,  3,  0,  9,  0,  3,  0,  0,  0,  6,  5,  6,  0,  6,  1,  1,  1,  0,  7,  4,  0,  6,  5,  0,  7,  6,  7,  6,  0,  0,  8,  0,  2,  1,  1
        |  8,  3,  1,  7,  7,  7,  8,  7,  5,  9,  8,  7,  9,  6,  5, 10,  8,  5,  3,  3,  2,  2,  2,  1, 10, 10,  9,  4,  2,  1,  5,  5,  4,  3,  4,  1,  6,  3,  3,  7,  7,  7,  2,  2,  2,  6,  4,  2,  8,  8,  8,  2,  1,  1,  7,  7,  4,  8,  6,  5
        |  9,  7,  5,  8,  5,  4,  6,  6,  6,  5,  5,  5,  6,  6,  6,  3,  2,  1,  5,  4,  4,  3,  3,  3, 10,  9,  9,  5,  5,  5,  8,  8,  8,  6,  5,  2,  6,  4,  3, 10,  8,  7,  7,  6,  4,  8,  8,  8,  5,  5,  5,  4,  4,  1,  5,  5,  5,  8,  7,  7 |];
